StudentsNr = 10;
InstructorsNr = 6;
DaysNr = 1;
SlotsPerDay = 10;
AvailabilitySlotsLenght = 10;
RoomNr = 1;
ProgrammNr = 1;
DegreeNr = 1;
RolesNr = 1;
CoursesNr = 4;
InstructorsProgramm = [{1}, {1}, {1}, {1}, {1}, {1}];
InstructorRolesPerProgramm = [|{3, 4, 5, 6}|];
InstructorsAvailability = [|1, |0, |1, |1, |1, |0|];
StudentsProgramm = [1, 1, 1, 1, 1, 1, 1, 1, 1, 1];
StudentsDegree = [1, 1, 1, 1, 1, 1, 1, 1, 1, 1];
StudentsSupervisorId = [3, 2, 6, 4, 4, 3, 6, 2, 5, 6];
StudentsCourseIds = [{1, 2, 3, 4}, {1, 2, 3, 4}, {1, 2, 3, 4}, {1, 2, 3, 4}, {1, 2, 3, 4}, {1, 2, 3, 4}, {1, 2, 3, 4}, {1, 2, 3, 4}, {1, 2, 3, 4}, {1, 2, 3, 4}];
StudentsAvailability = [|1, |0, |1, |0, |1, |0, |0, |0, |0, |1|];
TheoryticalMinCard = [1, 1, 1, 1, 1, 1, 1, 1, 1, 1];
CoursesInstructorIds = [{2, 3, 4, 6}, {1}, {3, 5}, {2, 4, 5, 6}];
RolesDemands = [4];
RolesContinuity = [];
ExamLen = [1, 1, 1, 1, 1, 1, 1, 1, 1, 1];
LunchTsMinLen = 1;
LunchStarts = [4..6];
SupervisorAvailable = 0;
OptimalLunchLenght = [1, 1];
OptimalStartTs = [1, 0];
OptimalFinishTs = [2, 10];
MinimizeRooms = 300;
RolesSoftContinuity = [|1|1|];
SameDegreeInRoom = 10;
Mergeability = 0;
